(set-info :Origin "This instance was generated by: BanditFuzz-- an RL fuzzer for SMT solvers" )
(set-info :Author "Joe Scott, Fed Mora, Vijay Ganesh" )
(set-info :Contact "Joe Scott, joseph.scott@uwaterloo.ca")
(set-logic QF_BV)
(declare-const bool_0 Bool)
(declare-const bool_1 Bool)
(declare-const bool_2 Bool)
(declare-const bool_3 Bool)
(declare-const bool_4 Bool)
(declare-const bv_0 (_ BitVec 32))
(declare-const bv_1 (_ BitVec 32))
(declare-const bv_2 (_ BitVec 32))
(declare-const bv_3 (_ BitVec 32))
(declare-const bv_4 (_ BitVec 32))
(assert (bvule (bvurem (bvnor #xc7cdf07a  #xf6f2c05a ) (bvshl #x6e436a23  #xc4d995fc )) (bvsmod (bvlshr bv_0 bv_2) (bvurem #xd984e91f  #xce350c14 ))))
(assert (bvugt (bvashr (bvsdiv bv_0 #x4ccde022 ) (bvnor #x40e9506f  #xcbe1b03c )) (bvnand (bvurem #x67982c6f  #x81caf804 ) (bvadd #xc792d38b  #xaad9319c ))))
(assert (bvugt (bvsrem (bvor #xa9b70071  #x3a00fbd4 ) (bvnor bv_4 bv_1)) (bvashr (bvshl #xfe065180  bv_2) (bvurem bv_3 #xc96811e6 ))))
(assert (bvsle (bvnor (bvsrem #xbe7bae60  bv_2) (bvnand bv_3 #xf9aff171 )) (bvxnor (bvlshr #x4a8fe832  #xb39dbbae ) (bvand bv_2 bv_3))))
(assert (bvult (bvxor (bvlshr #x8c4f1cae  #xbee16b9f ) (bvand #x02ec6789  bv_4)) (bvxnor (bvnand bv_2 bv_3) (bvor #xd9d2b662  #xf2d82e58 ))))
(check-sat)
(exit)
